100 10
97 80
88 51
73 34
96 22
35 45
50 20
99 55
37 11
29 70
83 11
83 14
39 7
55 48
68 45
49 7
83 30
99 93
37 40
97 38
63 52
22 96
2 4
52 38
83 20
30 29
73 84
78 18
34 77
66 25
48 15
82 69
78 83
83 24
19 47
97 63
91 94
42 5
92 30
20 60
52 72
80 63
93 76
4 70
13 49
39 12
36 99
89 40
63 20
37 71
41 28
22 96
11 37
98 34
53 82
7 55
3 92
53 49
20 16
96 59
3 10
34 71
49 2
73 87
40 4
12 37
36 31
13 15
48 55
24 43
39 76
54 88
68 2
89 88
84 100
80 66
7 23
16 27
62 74
40 60
13 100
91 18
28 57
37 95
1 67
37 7
60 78
33 22
80 15
81 28
92 14
99 23
17 95
41 43
7 3
80 69
89 91
72 12
5 10
14 77
79 89
545 643
404 481
471 574
481 549
645 748
672 767
591 669
536 665
687 784
679 769
